0 2338
1 2268
2 2137
3 1911
4 1724
5 1625
6 1625
7 1600
8 1558
9 1558
10 1491
11 1478
12 1478
13 1471
14 1435
15 1434
16 1434
17 1420
18 1414
19 1414
20 1367
21 1367
22 1326
23 1326
24 1326
25 1304
26 1301
27 1294
28 1287
29 1270
30 1270
31 1270
32 1270
33 1270
34 1226
35 1226
36 1217
37 1217
38 1212
39 1212
40 1201
41 1201
42 1201
43 1201
44 1201
45 1194
46 1188
47 1188
48 1188
49 1181
50 1166
51 1166
52 1166
53 1146
54 1099
55 1099
56 1099
57 1099
58 1099
59 1099
60 1096
61 1096
62 1096
63 1096
64 1096
65 1088
66 1088
67 1088
68 1087
69 1087
70 1087
71 1087
72 1082
73 1082
74 1082
75 1063
76 1063
77 1063
78 1063
79 1048
80 1048
81 1046
82 1046
83 1046
84 1046
85 1046
86 1046
87 1046
88 1046
89 1046
90 1046
91 1037
92 1037
93 1037
94 1037
95 1037
96 1037
97 1037
98 1006
99 1006
100 1006
101 1006
102 1006
103 1006
104 1006
105 1006
106 1006
107 1006
108 1006
109 1003
110 1003
111 1003
112 1003
113 1003
114 1003
115 1003
116 1003
117 986
118 986
119 986
120 986
121 986
122 986
123 986
124 986
125 986
126 986
127 986
128 986
129 986
130 986
131 986
132 986
133 978
134 978
135 978
136 963
137 963
138 963
139 963
140 963
141 963
142 963
143 955
144 955
145 955
146 955
147 955
148 954
149 954
150 954
151 951
152 951
153 951
154 951
155 951
156 951
157 951
158 951
159 951
160 951
161 951
162 946
163 946
164 946
165 946
166 946
167 946
168 946
169 946
170 946
171 946
172 946
173 946
174 946
175 946
176 946
177 946
178 946
179 946
180 942
181 936
182 936
183 936
184 936
185 936
186 936
187 936
188 936
189 936
190 936
191 936
192 936
193 936
194 936
195 936
196 936
197 936
198 936
199 936
200 936
201 936
202 936
203 936
204 936
205 936
206 936
207 936
208 936
209 936
210 936
211 936
212 936
213 936
214 936
215 936
216 936
217 936
218 936
219 936
220 936
221 936
222 936
223 936
224 936
225 936
226 936
227 936
228 936
229 936
230 936
231 936
232 936
233 936
234 936
235 936
236 936
237 936
238 936
239 936
240 936
241 936
242 936
243 936
244 936
245 936
246 936
247 936
248 936
249 936
250 936
251 936
252 936
253 936
254 936
255 936
256 936
257 936
258 927
259 927
260 927
261 927
262 927
263 927
264 927
265 927
266 927
267 927
268 927
269 927
270 927
271 927
272 927
273 927
274 927
275 927
276 927
277 927
278 927
279 927
280 927
281 927
282 927
283 927
284 927
285 927
286 927
287 927
288 927
289 927
290 927
291 927
292 927
293 927
294 927
295 927
296 927
297 927
298 927
299 927
300 927
301 927
302 927
303 927
304 927
305 927
306 927
307 927
308 927
309 927
310 927
311 927
312 927
313 927
314 927
315 927
316 927
317 927
318 927
319 927
320 927
321 927
322 927
323 927
324 927
325 927
326 927
327 927
328 927
329 927
330 927
331 927
332 927
333 927
334 927
335 927
336 927
337 927
338 927
339 927
340 927
341 927
342 927
343 927
344 927
345 927
346 927
347 927
348 927
349 927
350 927
351 927
352 927
353 927
354 927
355 927
356 927
357 927
358 927
359 927
360 927
361 927
362 927
363 927
364 927
365 927
366 927
367 927
368 927
369 927
370 927
371 927
372 927
373 927
374 927
375 927
376 927
377 927
378 927
379 927
380 927
381 927
382 927
383 927
384 927
385 927
386 927
387 927
388 927
389 927
390 927
391 927
392 927
393 927
394 927
395 927
396 927
397 927
398 927
399 927
400 927
401 927
402 927
403 927
404 927
405 927
406 927
407 927
408 927
409 927
410 927
411 927
412 927
413 927
414 927
415 927
416 927
417 927
418 927
419 927
420 927
421 927
422 927
423 927
424 927
425 927
426 927
427 927
428 927
429 927
430 927
431 927
432 927
433 927
434 927
435 927
436 927
437 927
438 927
439 927
440 927
441 927
442 927
443 927
444 927
445 927
446 927
447 927
448 927
449 927
450 927
451 927
452 927
453 927
454 927
455 927
456 927
457 927
458 927
459 927
460 927
461 927
462 927
463 927
464 927
465 927
466 927
467 927
468 927
469 927
470 927
471 927
472 927
473 927
474 927
475 927
476 927
477 927
478 927
479 927
480 927
481 927
482 927
483 927
484 927
485 927
486 927
487 927
488 927
489 927
490 927
491 927
492 927
493 927
494 927
495 927
496 927
497 927
498 927
499 927
500 927
501 927
502 927
503 927
504 927
505 927
506 927
507 927
508 927
509 927
510 927
511 927
512 927
513 927
514 927
515 927
516 927
517 927
518 927
519 927
520 927
521 927
522 927
523 927
524 927
525 927
526 927
527 927
528 927
529 927
530 927
531 927
532 927
533 927
534 927
535 927
536 927
537 927
538 927
539 927
540 927
541 927
542 927
543 927
544 927
545 927
546 927
547 927
548 927
549 927
550 927
551 927
552 927
553 927
554 927
555 927
556 927
557 927
558 927
559 927
560 927
561 927
562 927
563 927
564 927
565 927
566 927
567 927
568 927
569 927
570 927
571 927
572 927
573 927
574 927
575 927
576 927
577 927
578 927
579 927
580 927
581 927
582 927
583 927
584 927
585 927
586 927
587 927
588 927
589 927
590 927
591 927
592 927
593 927
594 927
595 927
596 927
597 927
598 927
599 927
600 927
601 927
602 927
603 927
604 927
605 927
606 927
607 927
608 927
609 927
610 927
611 927
612 927
613 927
614 927
615 927
616 927
617 927
618 927
619 927
620 927
621 927
622 927
623 927
624 927
625 927
626 927
627 927
628 927
629 927
630 927
631 927
632 927
633 927
634 927
635 927
636 927
637 927
638 927
639 927
640 927
641 927
642 927
643 927
644 927
645 927
646 927
647 927
648 927
649 927
650 927
651 927
652 927
653 927
654 927
655 927
656 927
657 927
658 927
659 927
660 927
661 927
662 927
663 927
664 927
665 927
666 927
667 927
668 927
669 927
670 927
671 927
672 927
673 927
674 927
675 927
676 927
677 927
678 927
679 927
680 927
681 927
682 927
683 927
684 927
685 927
686 927
687 927
688 927
689 927
690 927
691 927
692 927
693 927
694 927
695 927
696 927
697 927
698 927
699 927
700 927
701 927
702 927
703 927
704 927
705 927
706 927
707 927
708 927
709 927
710 927
711 927
712 927
713 927
714 927
715 927
716 927
717 927
718 927
719 927
720 927
721 927
722 927
723 927
724 927
725 927
726 927
727 927
728 927
729 927
730 927
731 927
732 927
733 927
734 927
735 927
736 927
737 927
738 927
739 927
740 927
741 927
742 927
743 927
744 927
745 927
746 927
747 927
748 927
749 927
750 927
751 927
752 927
753 927
754 927
755 927
756 927
757 927
758 927
759 927
760 927
761 927
762 927
763 927
764 927
765 927
766 927
767 927
768 927
769 927
770 927
771 927
772 927
773 927
774 927
775 927
776 927
777 927
778 927
779 927
780 927
781 927
782 927
783 927
784 927
785 927
786 927
787 927
788 927
789 927
790 927
791 927
792 927
793 927
794 927
795 927
796 927
797 927
798 927
799 927
800 927
801 927
802 927
803 927
804 927
805 927
806 927
807 927
808 927
809 927
810 927
811 927
812 927
813 927
814 927
815 927
816 927
817 927
818 927
819 927
820 927
821 927
822 927
823 927
824 927
825 927
826 927
827 927
828 927
829 927
830 927
831 927
832 927
833 927
834 927
835 927
836 927
837 927
838 927
839 927
840 927
841 927
842 927
843 927
844 927
845 927
846 927
847 927
848 927
849 927
850 927
851 927
852 927
853 927
854 927
855 927
856 927
857 927
858 927
859 927
860 927
861 927
862 927
863 927
864 927
865 927
866 927
867 927
868 927
869 927
870 927
871 927
872 927
873 927
874 927
875 927
876 927
877 927
878 927
879 927
880 927
881 927
882 927
883 927
884 927
885 927
886 927
887 927
888 927
889 927
890 927
891 927
892 927
893 927
894 927
895 927
896 927
897 927
898 927
899 927
900 927
901 927
902 927
903 927
904 927
905 927
906 927
907 927
908 927
909 927
910 927
911 927
912 927
913 927
914 927
915 927
916 927
917 927
918 927
919 927
920 927
921 927
922 927
923 927
924 927
925 927
926 927
927 927
928 927
929 927
930 927
931 927
932 927
933 927
934 927
935 927
936 927
937 927
938 927
939 927
940 927
941 927
942 927
943 927
944 927
945 927
946 927
947 927
948 927
949 927
950 927
951 927
952 927
953 927
954 927
955 927
956 927
957 927
958 927
959 927
960 927
961 927
962 927
963 927
964 927
965 927
966 927
967 927
968 927
969 927
970 927
971 927
972 927
973 927
974 927
975 927
976 927
977 927
978 927
979 927
980 927
981 927
982 927
983 927
984 927
985 927
986 927
987 927
988 927
989 927
990 927
991 927
992 927
993 927
994 927
995 927
996 927
997 927
998 927
999 927
Best: [[28,23,10,9,12,5,29,19],
       [27,8,14,22,32,4,24,15,25],
       [21,30,16,11,26,6],
       [31,17,2,13],
       [7,3,18,20]], fitness: 927
